(declare-const x0 Real)
(assert (<= 0.000010 x0))
(declare-const x1 Real)
(assert (<= 0.000010 x1))
(declare-const x2 Real)
(assert (<= 0.000010 x2))
(declare-const x3 Real)
(assert (<= 0.000010 x3))

(assert (<= 0.0 (+ (* 1.0 x0) (* (- 1.0 x0) x1))))

(minimize
	(+ (^ (+ (- 0.001890) (+ (* (+ 1.0 (/ 0.083333 x3)) (* (* (* (* x0 (^ (+ (* 1.0 x0) (* (- 1.0 x0) x1)) x3)) (sqrt (/ x3 6.283200))) (^ 0.013012 (+ (- 1.0) x3))) (exp (- x3 (/ (* (* 0.100000 (+ (* 1.0 x0) (* (- 1.0 x0) x1))) x3) 7.658000))))) (* (+ 1.0 (/ 0.083333 x2)) (* (* (* (* (- 1.0 x0) (^ (/ (+ (* 1.0 x0) (* (- 1.0 x0) x1)) x1) x2)) (sqrt (/ x2 6.283200))) (^ 0.013058 (+ (- 1.0) x2))) (exp (- x2 (/ (* (* 0.100000 (+ (* 1.0 x0) (* (- 1.0 x0) x1))) x2) (* 7.658000 x1)))))))) 2.0) (^ (+ (- 0.103800) (+ (* (+ 1.0 (/ 0.083333 x3)) (* (* (* (* x0 (^ (+ (* 1.0 x0) (* (- 1.0 x0) x1)) x3)) (sqrt (/ x3 6.283200))) (^ 0.130124 (+ (- 1.0) x3))) (exp (- x3 (/ (* (+ (* 1.0 x0) (* (- 1.0 x0) x1)) x3) 7.658000))))) (* (+ 1.0 (/ 0.083333 x2)) (* (* (* (* (- 1.0 x0) (^ (/ (+ (* 1.0 x0) (* (- 1.0 x0) x1)) x1) x2)) (sqrt (/ x2 6.283200))) (^ 0.130582 (+ (- 1.0) x2))) (exp (- x2 (/ (* (+ (* 1.0 x0) (* (- 1.0 x0) x1)) x2) (* 7.658000 x1)))))))) 2.0) (^ (+ (- 0.268000) (+ (* (+ 1.0 (/ 0.083333 x3)) (* (* (* (* x0 (^ (+ (* 1.0 x0) (* (- 1.0 x0) x1)) x3)) (sqrt (/ x3 6.283200))) (^ 0.260247 (+ (- 1.0) x3))) (exp (- x3 (/ (* (* 2.0 (+ (* 1.0 x0) (* (- 1.0 x0) x1))) x3) 7.658000))))) (* (+ 1.0 (/ 0.083333 x2)) (* (* (* (* (- 1.0 x0) (^ (/ (+ (* 1.0 x0) (* (- 1.0 x0) x1)) x1) x2)) (sqrt (/ x2 6.283200))) (^ 0.261165 (+ (- 1.0) x2))) (exp (- x2 (/ (* (* 2.0 (+ (* 1.0 x0) (* (- 1.0 x0) x1))) x2) (* 7.658000 x1)))))))) 2.0) (^ (+ (- 0.506000) (+ (* (+ 1.0 (/ 0.083333 x3)) (* (* (* (* x0 (^ (+ (* 1.0 x0) (* (- 1.0 x0) x1)) x3)) (sqrt (/ x3 6.283200))) (^ 0.390371 (+ (- 1.0) x3))) (exp (- x3 (/ (* (* 3.0 (+ (* 1.0 x0) (* (- 1.0 x0) x1))) x3) 7.658000))))) (* (+ 1.0 (/ 0.083333 x2)) (* (* (* (* (- 1.0 x0) (^ (/ (+ (* 1.0 x0) (* (- 1.0 x0) x1)) x1) x2)) (sqrt (/ x2 6.283200))) (^ 0.391747 (+ (- 1.0) x2))) (exp (- x2 (/ (* (* 3.0 (+ (* 1.0 x0) (* (- 1.0 x0) x1))) x2) (* 7.658000 x1)))))))) 2.0) (^ (+ (- 0.577000) (+ (* (+ 1.0 (/ 0.083333 x3)) (* (* (* (* x0 (^ (+ (* 1.0 x0) (* (- 1.0 x0) x1)) x3)) (sqrt (/ x3 6.283200))) (^ 0.520494 (+ (- 1.0) x3))) (exp (- x3 (/ (* (* 4.0 (+ (* 1.0 x0) (* (- 1.0 x0) x1))) x3) 7.658000))))) (* (+ 1.0 (/ 0.083333 x2)) (* (* (* (* (- 1.0 x0) (^ (/ (+ (* 1.0 x0) (* (- 1.0 x0) x1)) x1) x2)) (sqrt (/ x2 6.283200))) (^ 0.522330 (+ (- 1.0) x2))) (exp (- x2 (/ (* (* 4.0 (+ (* 1.0 x0) (* (- 1.0 x0) x1))) x2) (* 7.658000 x1)))))))) 2.0) (^ (+ (- 0.604000) (+ (* (+ 1.0 (/ 0.083333 x3)) (* (* (* (* x0 (^ (+ (* 1.0 x0) (* (- 1.0 x0) x1)) x3)) (sqrt (/ x3 6.283200))) (^ 0.650618 (+ (- 1.0) x3))) (exp (- x3 (/ (* (* 5.0 (+ (* 1.0 x0) (* (- 1.0 x0) x1))) x3) 7.658000))))) (* (+ 1.0 (/ 0.083333 x2)) (* (* (* (* (- 1.0 x0) (^ (/ (+ (* 1.0 x0) (* (- 1.0 x0) x1)) x1) x2)) (sqrt (/ x2 6.283200))) (^ 0.652912 (+ (- 1.0) x2))) (exp (- x2 (/ (* (* 5.0 (+ (* 1.0 x0) (* (- 1.0 x0) x1))) x2) (* 7.658000 x1)))))))) 2.0) (^ (+ (- 0.725000) (+ (* (+ 1.0 (/ 0.083333 x3)) (* (* (* (* x0 (^ (+ (* 1.0 x0) (* (- 1.0 x0) x1)) x3)) (sqrt (/ x3 6.283200))) (^ 0.780742 (+ (- 1.0) x3))) (exp (- x3 (/ (* (* 6.0 (+ (* 1.0 x0) (* (- 1.0 x0) x1))) x3) 7.658000))))) (* (+ 1.0 (/ 0.083333 x2)) (* (* (* (* (- 1.0 x0) (^ (/ (+ (* 1.0 x0) (* (- 1.0 x0) x1)) x1) x2)) (sqrt (/ x2 6.283200))) (^ 0.783494 (+ (- 1.0) x2))) (exp (- x2 (/ (* (* 6.0 (+ (* 1.0 x0) (* (- 1.0 x0) x1))) x2) (* 7.658000 x1)))))))) 2.0) (^ (+ (- 0.898000) (+ (* (+ 1.0 (/ 0.083333 x3)) (* (* (* (* x0 (^ (+ (* 1.0 x0) (* (- 1.0 x0) x1)) x3)) (sqrt (/ x3 6.283200))) (^ 0.910865 (+ (- 1.0) x3))) (exp (- x3 (/ (* (* 7.0 (+ (* 1.0 x0) (* (- 1.0 x0) x1))) x3) 7.658000))))) (* (+ 1.0 (/ 0.083333 x2)) (* (* (* (* (- 1.0 x0) (^ (/ (+ (* 1.0 x0) (* (- 1.0 x0) x1)) x1) x2)) (sqrt (/ x2 6.283200))) (^ 0.914077 (+ (- 1.0) x2))) (exp (- x2 (/ (* (* 7.0 (+ (* 1.0 x0) (* (- 1.0 x0) x1))) x2) (* 7.658000 x1)))))))) 2.0) (^ (+ (- 0.947000) (+ (* (+ 1.0 (/ 0.083333 x3)) (* (* (* (* x0 (^ (+ (* 1.0 x0) (* (- 1.0 x0) x1)) x3)) (sqrt (/ x3 6.283200))) (^ 1.040989 (+ (- 1.0) x3))) (exp (- x3 (/ (* (* 8.0 (+ (* 1.0 x0) (* (- 1.0 x0) x1))) x3) 7.658000))))) (* (+ 1.0 (/ 0.083333 x2)) (* (* (* (* (- 1.0 x0) (^ (/ (+ (* 1.0 x0) (* (- 1.0 x0) x1)) x1) x2)) (sqrt (/ x2 6.283200))) (^ 1.044659 (+ (- 1.0) x2))) (exp (- x2 (/ (* (* 8.0 (+ (* 1.0 x0) (* (- 1.0 x0) x1))) x2) (* 7.658000 x1)))))))) 2.0) (^ (+ (- 0.845000) (+ (* (+ 1.0 (/ 0.083333 x3)) (* (* (* (* x0 (^ (+ (* 1.0 x0) (* (- 1.0 x0) x1)) x3)) (sqrt (/ x3 6.283200))) (^ 1.171113 (+ (- 1.0) x3))) (exp (- x3 (/ (* (* 9.0 (+ (* 1.0 x0) (* (- 1.0 x0) x1))) x3) 7.658000))))) (* (+ 1.0 (/ 0.083333 x2)) (* (* (* (* (- 1.0 x0) (^ (/ (+ (* 1.0 x0) (* (- 1.0 x0) x1)) x1) x2)) (sqrt (/ x2 6.283200))) (^ 1.175242 (+ (- 1.0) x2))) (exp (- x2 (/ (* (* 9.0 (+ (* 1.0 x0) (* (- 1.0 x0) x1))) x2) (* 7.658000 x1)))))))) 2.0) (^ (+ (- 0.702000) (+ (* (+ 1.0 (/ 0.083333 x3)) (* (* (* (* x0 (^ (+ (* 1.0 x0) (* (- 1.0 x0) x1)) x3)) (sqrt (/ x3 6.283200))) (^ 1.301236 (+ (- 1.0) x3))) (exp (- x3 (/ (* (* 10.0 (+ (* 1.0 x0) (* (- 1.0 x0) x1))) x3) 7.658000))))) (* (+ 1.0 (/ 0.083333 x2)) (* (* (* (* (- 1.0 x0) (^ (/ (+ (* 1.0 x0) (* (- 1.0 x0) x1)) x1) x2)) (sqrt (/ x2 6.283200))) (^ 1.305824 (+ (- 1.0) x2))) (exp (- x2 (/ (* (* 10.0 (+ (* 1.0 x0) (* (- 1.0 x0) x1))) x2) (* 7.658000 x1)))))))) 2.0) (^ (+ (- 0.528000) (+ (* (+ 1.0 (/ 0.083333 x3)) (* (* (* (* x0 (^ (+ (* 1.0 x0) (* (- 1.0 x0) x1)) x3)) (sqrt (/ x3 6.283200))) (^ 1.431360 (+ (- 1.0) x3))) (exp (- x3 (/ (* (* 11.0 (+ (* 1.0 x0) (* (- 1.0 x0) x1))) x3) 7.658000))))) (* (+ 1.0 (/ 0.083333 x2)) (* (* (* (* (- 1.0 x0) (^ (/ (+ (* 1.0 x0) (* (- 1.0 x0) x1)) x1) x2)) (sqrt (/ x2 6.283200))) (^ 1.436406 (+ (- 1.0) x2))) (exp (- x2 (/ (* (* 11.0 (+ (* 1.0 x0) (* (- 1.0 x0) x1))) x2) (* 7.658000 x1)))))))) 2.0) (^ (+ (- 0.385000) (+ (* (+ 1.0 (/ 0.083333 x3)) (* (* (* (* x0 (^ (+ (* 1.0 x0) (* (- 1.0 x0) x1)) x3)) (sqrt (/ x3 6.283200))) (^ 1.561483 (+ (- 1.0) x3))) (exp (- x3 (/ (* (* 12.0 (+ (* 1.0 x0) (* (- 1.0 x0) x1))) x3) 7.658000))))) (* (+ 1.0 (/ 0.083333 x2)) (* (* (* (* (- 1.0 x0) (^ (/ (+ (* 1.0 x0) (* (- 1.0 x0) x1)) x1) x2)) (sqrt (/ x2 6.283200))) (^ 1.566989 (+ (- 1.0) x2))) (exp (- x2 (/ (* (* 12.0 (+ (* 1.0 x0) (* (- 1.0 x0) x1))) x2) (* 7.658000 x1)))))))) 2.0) (^ (+ (- 0.257000) (+ (* (+ 1.0 (/ 0.083333 x3)) (* (* (* (* x0 (^ (+ (* 1.0 x0) (* (- 1.0 x0) x1)) x3)) (sqrt (/ x3 6.283200))) (^ 1.691607 (+ (- 1.0) x3))) (exp (- x3 (/ (* (* 13.0 (+ (* 1.0 x0) (* (- 1.0 x0) x1))) x3) 7.658000))))) (* (+ 1.0 (/ 0.083333 x2)) (* (* (* (* (- 1.0 x0) (^ (/ (+ (* 1.0 x0) (* (- 1.0 x0) x1)) x1) x2)) (sqrt (/ x2 6.283200))) (^ 1.697571 (+ (- 1.0) x2))) (exp (- x2 (/ (* (* 13.0 (+ (* 1.0 x0) (* (- 1.0 x0) x1))) x2) (* 7.658000 x1)))))))) 2.0) (^ (+ (- 0.159000) (+ (* (+ 1.0 (/ 0.083333 x3)) (* (* (* (* x0 (^ (+ (* 1.0 x0) (* (- 1.0 x0) x1)) x3)) (sqrt (/ x3 6.283200))) (^ 1.821731 (+ (- 1.0) x3))) (exp (- x3 (/ (* (* 14.0 (+ (* 1.0 x0) (* (- 1.0 x0) x1))) x3) 7.658000))))) (* (+ 1.0 (/ 0.083333 x2)) (* (* (* (* (- 1.0 x0) (^ (/ (+ (* 1.0 x0) (* (- 1.0 x0) x1)) x1) x2)) (sqrt (/ x2 6.283200))) (^ 1.828154 (+ (- 1.0) x2))) (exp (- x2 (/ (* (* 14.0 (+ (* 1.0 x0) (* (- 1.0 x0) x1))) x2) (* 7.658000 x1)))))))) 2.0) (^ (+ (- 0.086900) (+ (* (+ 1.0 (/ 0.083333 x3)) (* (* (* (* x0 (^ (+ (* 1.0 x0) (* (- 1.0 x0) x1)) x3)) (sqrt (/ x3 6.283200))) (^ 1.951854 (+ (- 1.0) x3))) (exp (- x3 (/ (* (* 15.0 (+ (* 1.0 x0) (* (- 1.0 x0) x1))) x3) 7.658000))))) (* (+ 1.0 (/ 0.083333 x2)) (* (* (* (* (- 1.0 x0) (^ (/ (+ (* 1.0 x0) (* (- 1.0 x0) x1)) x1) x2)) (sqrt (/ x2 6.283200))) (^ 1.958736 (+ (- 1.0) x2))) (exp (- x2 (/ (* (* 15.0 (+ (* 1.0 x0) (* (- 1.0 x0) x1))) x2) (* 7.658000 x1)))))))) 2.0) (^ (+ (- 0.045300) (+ (* (+ 1.0 (/ 0.083333 x3)) (* (* (* (* x0 (^ (+ (* 1.0 x0) (* (- 1.0 x0) x1)) x3)) (sqrt (/ x3 6.283200))) (^ 2.081978 (+ (- 1.0) x3))) (exp (- x3 (/ (* (* 16.0 (+ (* 1.0 x0) (* (- 1.0 x0) x1))) x3) 7.658000))))) (* (+ 1.0 (/ 0.083333 x2)) (* (* (* (* (- 1.0 x0) (^ (/ (+ (* 1.0 x0) (* (- 1.0 x0) x1)) x1) x2)) (sqrt (/ x2 6.283200))) (^ 2.089318 (+ (- 1.0) x2))) (exp (- x2 (/ (* (* 16.0 (+ (* 1.0 x0) (* (- 1.0 x0) x1))) x2) (* 7.658000 x1)))))))) 2.0) (^ (+ (- 0.015090) (+ (* (+ 1.0 (/ 0.083333 x3)) (* (* (* (* x0 (^ (+ (* 1.0 x0) (* (- 1.0 x0) x1)) x3)) (sqrt (/ x3 6.283200))) (^ 2.212101 (+ (- 1.0) x3))) (exp (- x3 (/ (* (* 17.0 (+ (* 1.0 x0) (* (- 1.0 x0) x1))) x3) 7.658000))))) (* (+ 1.0 (/ 0.083333 x2)) (* (* (* (* (- 1.0 x0) (^ (/ (+ (* 1.0 x0) (* (- 1.0 x0) x1)) x1) x2)) (sqrt (/ x2 6.283200))) (^ 2.219901 (+ (- 1.0) x2))) (exp (- x2 (/ (* (* 17.0 (+ (* 1.0 x0) (* (- 1.0 x0) x1))) x2) (* 7.658000 x1)))))))) 2.0) (^ (+ (- 0.001890) (+ (* (+ 1.0 (/ 0.083333 x3)) (* (* (* (* x0 (^ (+ (* 1.0 x0) (* (- 1.0 x0) x1)) x3)) (sqrt (/ x3 6.283200))) (^ 2.342225 (+ (- 1.0) x3))) (exp (- x3 (/ (* (* 18.0 (+ (* 1.0 x0) (* (- 1.0 x0) x1))) x3) 7.658000))))) (* (+ 1.0 (/ 0.083333 x2)) (* (* (* (* (- 1.0 x0) (^ (/ (+ (* 1.0 x0) (* (- 1.0 x0) x1)) x1) x2)) (sqrt (/ x2 6.283200))) (^ 2.350483 (+ (- 1.0) x2))) (exp (- x2 (/ (* (* 18.0 (+ (* 1.0 x0) (* (- 1.0 x0) x1))) x2) (* 7.658000 x1)))))))) 2.0))
)
(check-sat)
(get-objectives)
(exit)

